sat
(:max-memory          18.49
 :memory              17.82
 :num-allocs          334775
 :rlimit-count        20115
 :sls-arith-flips     102
 :sls-ddfw-flips      309.00
 :sls-ddfw-shifts     12.00
 :sls-repair-down     287
 :sls-repair-up       462
 :solve-eqs-elim-vars 44
 :solve-eqs-steps     812
 :time                0.01
 :total-time          0.01)
